0-17-164-93-18-139-11-125-113-108-109-100-65-1-74-23-142-15-232-120-253-111-243-61-0
0-24-185-98-246-33-141-9-188-257-7-13-228-124-103-241-3-51-140-133-106-30-167-0
0-85-200-191-5-58-254-176-114-56-138-179-39-48-49-225-37-78-151-122-53-0
0-47-46-42-43-16-136-45-189-172-237-245-119-171-90-70-69-247-194-54-20-229-0
0-233-81-117-236-207-248-59-231-175-131-79-215-38-216-68-4-77-252-166-112-239-26-0
0-177-226-214-187-123-222-84-75-255-110-62-96-19-258-63-71-34-87-92-118-64-0
0-155-163-94-182-82-44-116-234-40-127-235-204-218-52-27-0
0-72-154-22-203-80-190-227-99-144-0
0-8-184-195-57-129-135-89-165-126-173-132-32-198-238-240-88-143-76-28-199-91-0
0-10-134-73-83-230-256-156-244-25-29-178-60-12-197-105-212-242-183-97-169-251-14-0
0-221-213-210-209-202-196-223-86-193-181-150-148-128-121-146-145-159-162-0
0-50-35-152-147-149-217-161-160-157-107-249-250-101-130-153-158-224-208-205-206-219-220-211-102-201-180-0
0-174-41-67-104-66-6-137-95-186-36-168-21-192-115-170-55-31-2-0

0-17-164-93-18-139-11-125-113-108-109-100-65-1-74-23-142-15-232-120-253-111-243-61-0
0-24-185-98-246-33-141-9-188-257-7-13-228-124-103-241-3-51-140-133-106-30-167-0
0-85-200-191-5-58-254-176-114-56-138-179-39-48-49-225-37-78-151-122-53-0
0-47-46-42-43-16-136-45-189-172-237-245-119-171-90-70-69-247-194-54-20-229-0
0-233-81-117-236-207-248-59-231-175-131-79-215-38-216-68-4-77-252-166-112-239-26-0
0-177-226-214-187-123-222-84-75-255-110-62-96-19-258-63-71-34-87-92-118-64-0
0-155-163-94-182-82-44-116-234-40-127-235-204-218-52-27-0
0-72-154-22-203-80-190-227-99-144-0
0-8-184-195-57-129-135-89-165-126-173-132-32-198-238-240-88-143-76-28-199-91-0
0-10-134-73-83-230-256-156-244-25-29-178-60-12-197-105-212-242-183-97-169-251-14-0
0-221-213-210-209-202-196-223-86-193-181-150-148-128-121-146-145-159-162-0
0-50-35-152-147-149-217-161-160-157-107-249-250-101-130-153-158-224-208-205-206-219-220-211-102-201-180-0
0-174-41-67-104-66-6-137-95-186-36-168-21-192-115-170-55-31-2-0

0-17-164-93-18-139-11-125-113-108-109-100-65-1-74-23-142-15-232-120-253-111-243-61-0
0-24-185-98-246-33-141-9-188-257-7-13-228-124-103-241-3-51-140-133-106-30-167-0
0-85-200-191-5-58-254-176-114-56-138-179-39-48-49-225-37-78-151-122-53-0
0-47-46-42-43-16-136-45-189-172-237-245-119-171-90-70-69-247-194-54-20-229-0
0-233-81-117-236-207-248-59-231-175-131-79-215-38-216-68-4-77-252-166-112-239-26-0
0-177-226-214-187-123-222-84-75-255-110-62-96-19-258-63-71-34-87-92-118-64-0
0-155-163-94-182-82-44-116-234-40-127-235-204-218-52-27-0
0-72-154-22-203-80-190-227-99-144-0
0-8-184-195-57-129-135-89-165-126-173-132-32-198-238-240-88-143-76-28-199-91-0
0-10-134-73-83-230-256-156-244-25-29-178-60-12-197-105-212-242-183-97-169-251-14-0
0-221-213-210-209-202-196-223-86-193-181-150-148-128-121-146-145-159-162-0
0-50-35-152-147-149-217-161-160-157-107-249-250-101-130-153-158-224-208-205-206-219-220-211-102-201-180-0
0-174-41-67-104-66-6-137-95-186-36-168-21-192-115-170-55-31-2-0

0-17-164-93-18-139-11-125-113-108-109-100-65-1-74-23-142-15-232-120-253-111-243-61-0
0-24-185-98-246-33-141-9-188-257-7-13-228-124-103-241-3-51-140-133-106-30-167-0
0-85-200-191-5-58-254-176-114-56-138-179-39-48-49-225-37-78-151-122-53-0
0-47-46-42-43-16-136-45-189-172-237-245-119-171-90-70-69-247-194-54-20-229-0
0-233-81-117-236-207-248-59-231-175-131-79-215-38-216-68-4-77-252-166-112-239-26-0
0-177-226-214-187-123-222-84-75-255-110-62-96-19-258-63-71-34-87-92-118-64-0
0-155-163-94-182-82-44-116-234-40-127-235-204-218-52-27-0
0-72-154-22-203-80-190-227-99-144-0
0-8-184-195-57-129-135-89-165-126-173-132-32-198-238-240-88-143-76-28-199-91-0
0-10-134-73-83-230-256-156-244-25-29-178-60-12-197-105-212-242-183-97-169-251-14-0
0-221-213-210-209-202-196-223-86-193-181-150-148-128-121-146-145-159-162-0
0-50-35-152-147-149-217-161-160-157-107-249-250-101-130-153-158-224-208-205-206-219-220-211-102-201-180-0
0-174-41-67-104-66-6-137-95-186-36-168-21-192-115-170-55-31-2-0

0-17-164-93-18-139-11-125-113-108-109-100-65-1-74-23-142-15-232-120-253-111-243-61-0
0-24-185-98-246-33-141-9-188-257-7-13-228-124-103-241-3-51-140-133-106-30-167-0
0-85-200-191-5-58-254-176-114-56-138-179-39-48-49-225-37-78-151-122-53-0
0-47-46-42-43-16-136-45-189-172-237-245-119-171-90-70-69-247-194-54-20-229-0
0-233-81-117-236-207-248-59-231-175-131-79-215-38-216-68-4-77-252-166-112-239-26-0
0-177-226-214-187-123-222-84-75-255-110-62-96-19-258-63-71-34-87-92-118-64-0
0-155-163-94-182-82-44-116-234-40-127-235-204-218-52-27-0
0-72-154-22-203-80-190-227-99-144-0
0-8-184-195-57-129-135-89-165-126-173-132-32-198-238-240-88-143-76-28-199-91-0
0-10-134-73-83-230-256-156-244-25-29-178-60-12-197-105-212-242-183-97-169-251-14-0
0-221-213-210-209-202-196-223-86-193-181-150-148-128-121-146-145-159-162-0
0-50-35-152-147-149-217-161-160-157-107-249-250-101-130-153-158-224-208-205-206-219-220-211-102-201-180-0
0-174-41-67-104-66-6-137-95-186-36-168-21-192-115-170-55-31-2-0

